(set-logic QF_S)
(declare-fun T_1c () Bool)
(declare-fun T_SELECT_4 () Bool)
(declare-fun I0_44 () Int)
(declare-fun I1_44 () Int)
(declare-fun I2_44 () Int)
(declare-fun PCTEMP_LHS_6 () Int)
(declare-fun T_1f () Int)
(declare-fun T_20 () Int)
(declare-fun T0_35 () String)
(declare-fun T1_35 () String)
(declare-fun var_0xINPUT_16789 () String)
(assert (= var_0xINPUT_16789 (str.++ T0_35 T1_35)))
(assert (not (str.in.re T1_35 (str.to.re "__utmz=169413169."))))
(assert T_1c)
(assert (= T_1c (< (- 1) PCTEMP_LHS_6)))
(assert (>= T_20 T_1f))
(assert (= I2_44 I1_44))
(assert (<= T_20 I1_44))
(assert (= I0_44 (- T_20 T_1f)))
(assert (>= T_1f 0))
(assert (= T_1f (+ PCTEMP_LHS_6 7)))
(assert (= PCTEMP_LHS_6 (- 1)))
(assert (= T_SELECT_4 (not (= PCTEMP_LHS_6 (- 1)))))
(assert (= 0 (str.len T0_35))) ; len 0
(assert (not T_SELECT_4))
(check-sat)
